(declare-const a Real)
(declare-const b Real)
(declare-const c Real)
(assert (= (+ a b c) 3))
(assert (> a 0))
(assert (> b 0))
(assert (> c 0))
(assert (not (<= (+ (* (pow (+ (* 61440 (pow b 3)) (* 486 c (pow (+ a b) 2))) -1) (pow (+ (* 486 c (pow (+ a b) 3)) (* 61440 c (pow b 3))) 2)) (* -282624 a (pow c 4)) (* -282624 b (pow a 4)) (* -268656 c (pow b 4)) (* -94208 a (pow b 4)) (* -94208 b (pow c 4)) (* -86016 (pow a 2) (pow c 3)) (* -86016 (pow a 3) (pow b 2)) (* -80240 c (pow a 4)) (* 86016 (pow a 2) (pow b 3)) (* 86016 (pow b 2) (pow c 3)) (* 233472 (pow a 3) (pow c 2)) (* 229376 a b (pow c 3)) (* 285248 a c (pow b 3)) (* 285248 b c (pow a 3))) 0)))
(check-sat)
(get-model)
(exit)